set VV := 0 1 2 3 4 5 6 7 8 9 10 11 12 13 14 ;
set VS := 0 1 2 3 4 5 6 7 8 9 10 11 12 13 14 15 16 17 18 19 20 21 22 23 24 25 26 27 28 29 30 31 32 33 34 ;
param cv := 
0 16
1 14
2 17
3 14
4 14
5 19
6 15
7 20
8 18
9 16
10 20
11 24
12 20
13 15
14 14
;
param cs := 
0 31
1 30
2 22
3 38
4 26
5 39
6 31
7 39
8 21
9 35
10 20
11 37
12 34
13 32
14 23
15 35
16 36
17 38
18 32
19 40
20 29
21 29
22 20
23 23
24 20
25 27
26 31
27 35
28 38
29 22
30 38
31 25
32 38
33 28
34 38
;
param bv:	 0 1 2 3 4 5 6 7 8 9 10 11 12 13 14 := 
		0 0 0 0 0 0 0 0 0 0 0 0 0 11 0 0 
		1 0 0 0 12 0 0 0 11 0 23 0 0 11 0 0 
		2 0 0 0 0 0 0 0 0 0 0 12 0 0 0 0 
		3 0 0 0 0 0 0 0 0 14 0 0 0 25 0 0 
		4 0 0 0 0 0 0 0 0 23 0 0 0 0 0 0 
		5 0 0 0 0 0 0 0 0 12 0 18 11 0 0 20 
		6 0 0 0 0 0 0 0 0 0 23 0 0 0 0 0 
		7 0 0 0 0 0 0 0 0 0 0 0 0 15 17 0 
		8 0 0 0 0 0 0 0 0 0 0 0 0 0 0 0 
		9 0 0 0 0 0 0 0 0 0 0 0 0 0 0 0 
		10 0 0 0 0 0 0 0 0 0 0 0 10 0 0 0 
		11 0 0 0 0 0 0 0 0 0 0 0 0 0 0 0 
		12 0 0 0 0 0 0 0 0 0 0 0 0 0 0 0 
		13 0 0 0 0 0 0 0 0 0 0 0 0 0 0 0 
		14 0 0 0 0 0 0 0 0 0 0 0 0 0 0 0 
;
param bs:	 0 1 2 3 4 5 6 7 8 9 10 11 12 13 14 15 16 17 18 19 20 21 22 23 24 25 26 27 28 29 30 31 32 33 34 := 
		0 0 0 0 0 0 0 0 0 0 0 0 0 0 24 0 0 27 0 0 0 34 28 0 0 0 0 0 0 0 0 0 0 0 0 0 
		1 0 0 0 32 0 0 0 0 0 0 0 0 0 33 0 0 0 0 0 0 38 0 0 0 40 36 0 0 0 0 0 25 0 23 0 
		2 0 0 0 0 0 0 0 0 33 0 0 0 0 0 0 0 0 0 0 0 23 0 0 0 0 0 0 0 0 0 28 20 0 26 0 
		3 0 32 0 0 0 0 0 0 0 0 0 0 0 0 0 0 0 0 0 0 0 0 28 0 0 0 0 0 0 0 0 0 0 0 32 
		4 0 0 0 0 0 0 0 0 0 0 34 0 0 0 0 0 0 0 0 0 0 0 0 0 0 0 0 31 0 0 0 0 0 0 0 
		5 0 0 0 0 0 0 0 0 0 0 0 35 0 33 0 0 29 0 25 33 0 0 25 0 0 0 0 0 0 0 0 27 0 0 21 
		6 0 0 0 0 0 0 0 0 0 0 0 0 0 0 26 0 0 0 0 0 0 0 0 0 0 0 0 0 0 0 0 0 0 0 0 
		7 0 0 0 0 0 0 0 0 0 0 0 0 0 0 0 0 0 0 0 0 0 0 0 39 37 0 0 0 0 0 0 0 0 0 0 
		8 0 0 33 0 0 0 0 0 0 0 34 32 0 0 0 33 0 21 0 0 0 0 0 0 0 23 0 0 0 0 0 0 0 37 0 
		9 0 0 0 0 0 0 0 0 0 0 0 0 0 0 0 0 32 20 0 0 26 0 0 0 0 0 0 0 0 0 0 0 29 28 0 
		10 0 0 0 0 34 0 0 0 34 0 0 0 0 0 0 26 0 0 0 0 0 0 0 0 0 0 30 0 0 0 0 0 35 0 0 
		11 0 0 0 0 0 35 0 0 32 0 0 0 0 0 36 0 0 0 36 0 0 0 0 0 0 0 0 0 24 0 0 0 0 0 0 
		12 0 0 0 0 0 0 0 0 0 0 0 0 0 0 0 0 0 0 0 0 0 0 0 0 0 0 0 0 34 24 0 0 0 0 0 
		13 24 33 0 0 0 33 0 0 0 0 0 0 0 0 0 0 0 0 0 0 0 0 0 0 0 0 35 0 0 0 0 0 0 0 0 
		14 0 0 0 0 0 0 26 0 0 0 0 36 0 0 0 0 28 0 31 0 0 36 0 0 0 25 38 0 0 0 0 0 0 0 38 
		15 0 0 0 0 0 0 0 0 33 0 26 0 0 0 0 0 0 0 0 0 0 0 0 0 0 0 0 0 0 0 0 0 31 0 0 
		16 27 0 0 0 0 29 0 0 0 32 0 0 0 0 28 0 0 0 0 0 0 0 0 0 0 0 34 0 0 29 0 0 0 0 0 
		17 0 0 0 0 0 0 0 0 21 20 0 0 0 0 0 0 0 0 0 0 0 0 0 0 0 20 0 0 0 0 0 0 0 32 0 
		18 0 0 0 0 0 25 0 0 0 0 0 36 0 0 31 0 0 0 0 0 0 0 0 0 0 0 0 0 0 38 0 0 0 0 0 
		19 0 0 0 0 0 33 0 0 0 0 0 0 0 0 0 0 0 0 0 0 0 0 0 0 0 0 26 0 0 0 0 0 0 0 0 
		20 34 38 23 0 0 0 0 0 0 26 0 0 0 0 0 0 0 0 0 0 0 0 0 0 0 40 0 0 0 0 0 0 0 0 0 
		21 28 0 0 0 0 0 0 0 0 0 0 0 0 0 36 0 0 0 0 0 0 0 0 0 0 0 0 0 27 0 0 0 0 0 0 
		22 0 0 0 28 0 25 0 0 0 0 0 0 0 0 0 0 0 0 0 0 0 0 0 0 0 0 0 0 0 0 0 0 0 0 0 
		23 0 0 0 0 0 0 0 39 0 0 0 0 0 0 0 0 0 0 0 0 0 0 0 0 0 0 0 0 0 0 0 0 0 0 0 
		24 0 40 0 0 0 0 0 37 0 0 0 0 0 0 0 0 0 0 0 0 0 0 0 0 0 0 0 0 0 0 0 31 0 0 0 
		25 0 36 0 0 0 0 0 0 23 0 0 0 0 0 25 0 0 20 0 0 40 0 0 0 0 0 0 0 0 0 0 35 0 0 0 
		26 0 0 0 0 0 0 0 0 0 0 30 0 0 35 38 0 34 0 0 26 0 0 0 0 0 0 0 36 0 0 0 0 0 0 20 
		27 0 0 0 0 31 0 0 0 0 0 0 0 0 0 0 0 0 0 0 0 0 0 0 0 0 0 36 0 0 0 0 0 0 0 0 
		28 0 0 0 0 0 0 0 0 0 0 0 24 34 0 0 0 0 0 0 0 0 27 0 0 0 0 0 0 0 0 0 0 0 0 0 
		29 0 0 0 0 0 0 0 0 0 0 0 0 24 0 0 0 29 0 38 0 0 0 0 0 0 0 0 0 0 0 0 0 0 0 36 
		30 0 0 28 0 0 0 0 0 0 0 0 0 0 0 0 0 0 0 0 0 0 0 0 0 0 0 0 0 0 0 0 0 0 0 0 
		31 0 25 20 0 0 27 0 0 0 0 0 0 0 0 0 0 0 0 0 0 0 0 0 0 31 35 0 0 0 0 0 0 0 0 0 
		32 0 0 0 0 0 0 0 0 0 29 35 0 0 0 0 31 0 0 0 0 0 0 0 0 0 0 0 0 0 0 0 0 0 0 0 
		33 0 23 26 0 0 0 0 0 37 28 0 0 0 0 0 0 0 32 0 0 0 0 0 0 0 0 0 0 0 0 0 0 0 0 0 
		34 0 0 0 32 0 21 0 0 0 0 0 0 0 0 38 0 0 0 0 0 0 0 0 0 0 0 20 0 0 36 0 0 0 0 0 
;
